; benchmark generated from python API
(set-info :status unknown)
(declare-fun S_4 () Real)
(declare-fun S_3 () Real)
(declare-fun C () Real)
(declare-fun S_0 () Real)
(declare-fun S_2 () Real)
(declare-fun A_0 () Real)
(declare-fun L_0 () Real)
(declare-fun L0 () Real)
(declare-fun S_1 () Real)
(declare-fun A_3 () Real)
(declare-fun L_2 () Real)
(declare-fun A_2 () Real)
(declare-fun B () Real)
(declare-fun L_1 () Real)
(declare-fun A_1 () Real)
(declare-fun A_4 () Real)
(assert
 (let (($x37 (>= L0 0.0)))
 (let (($x758 (>= C 5.0)))
 (let (($x6109 (<= (+ (* 2.0 C) S_1 (* (- 1.0) S_4)) 0.0)))
 (let (($x4050 (>= S_4 (+ A_3 (* (- 1.0) L_0)))))
 (let (($x3650 (not (= L_0 L_2))))
 (let (($x6907 (<= (+ (* 3.0 C) (* (- 1.0) S_4) S_0) 0.0)))
 (let (($x6610 (<= (+ C (* (- 1.0) S_4) S_2) 0.0)))
 (let (($x6080 (<= (+ A_3 (* (- 1.0) A_2) (* (- 1.0) C)) 0.0)))
 (let ((?x491 (* 2.0 C)))
 (let ((?x543 (* (- 1.0) B)))
 (let ((?x479 (* (- 1.0) L_1)))
 (let ((?x6350 (+ A_1 ?x479 ?x543 ?x491)))
 (let (($x6883 (>= S_4 ?x6350)))
 (let (($x1668 (not (= L_1 L_2))))
 (let (($x54 (= L_1 L_0)))
 (let (($x6890 (or $x54 $x1668 (<= (+ A_2 (* (- 1.0) A_1) (* (- 1.0) C)) 0.0))))
 (let ((?x485 (* (- 1.0) L_0)))
 (let ((?x625 (+ A_0 ?x485)))
 (let ((?x325 (* (- 2.0) C)))
 (let ((?x316 (* (- 1.0) L_2)))
 (let ((?x6413 (+ ?x543 ?x316 A_2 ?x325)))
 (let (($x6471 (<= (+ A_1 ?x485 L_2 (* (- 1.0) A_2) C) 0.0)))
 (let (($x6488 (not $x6471)))
 (let (($x1911 (= L_2 L_0)))
 (let (($x117 (>= S_3 S_2)))
 (let (($x36 (>= L_0 L0)))
 (let (($x111 (>= S_1 S_0)))
 (let (($x114 (>= S_2 S_1)))
 (let (($x123 (>= A_2 A_1)))
 (let (($x124 (>= A_3 A_2)))
 (let (($x125 (>= A_4 A_3)))
 (and (<= (+ A_1 ?x479) S_4) (<= ?x625 S_3) (not (<= (+ A_1 ?x479) S_3)) $x125 $x124 $x123 $x114 $x111 $x36 $x117 (or $x54 (not (<= L_1 L_0))) (or (= L_2 L_1) (<= S_2 (+ A_2 ?x316 ?x543))) (>= S_2 (+ A_1 ?x479 ?x543)) (or (= L_2 L_1) (<= S_3 (+ A_2 ?x316 ?x543 C))) (or $x54 (<= S_2 (+ A_1 ?x479 ?x543 C))) (<= (+ ?x543 ?x479 A_1 (* (- 1.0) C)) ?x625) (>= S_1 (+ ?x543 ?x479 A_1 (* (- 1.0) C))) (or $x54 (<= S_0 (+ ?x543 ?x479 A_1 (* (- 1.0) C)))) (or $x54 (<= S_4 (+ A_1 ?x479 ?x543 (* 3.0 C)))) (>= S_3 (+ A_2 ?x316 ?x543)) (>= S_0 (+ ?x543 ?x479 A_1 ?x325)) (or $x54 (= L_2 L_1) (= (+ A_2 ?x316) (+ A_1 ?x479 C))) (>= S_4 (+ A_2 ?x316 ?x543 C)) (or $x54 (<= S_1 (+ A_1 ?x479 ?x543))) (<= (+ L_0 (* (- 1.0) C) S_1 (* (- 1.0) A_0)) 0.0) (<= (+ ?x325 S_1 (* (- 1.0) S_0)) 0.0) (>= S_0 (+ ?x543 ?x316 A_2 (* (- 3.0) C))) (<= S_4 (+ A_4 ?x316)) (>= S_3 (+ A_1 ?x479 ?x543 C)) (or (= L_2 L_1) (<= S_1 (+ ?x543 ?x316 A_2 (* (- 1.0) C)))) (or (not (= L_0 L_1)) $x1911 $x6471) (or $x1911 (<= S_4 (+ A_2 ?x316 ?x543 ?x491)) $x6488) (or $x1911 (<= S_0 ?x6413) $x6488) (or $x54 (<= S_3 ?x6350)) (<= (+ C S_1 (* (- 1.0) S_3)) 0.0) (<= S_4 (+ A_3 ?x479 C)) (or $x1668 (<= (+ ?x543 ?x479 A_2 ?x325) ?x625)) (or (= L_2 L_1) (not (<= L_2 L_1))) (<= (+ ?x325 (* (- 1.0) S_1) S_2) 0.0) (<= (+ L_0 ?x325 (* (- 1.0) A_0) S_2) 0.0) (<= (+ ?x491 (* (- 1.0) S_3) S_0) 0.0) (<= ?x6413 ?x625) (>= S_2 (+ ?x543 ?x316 A_2 (* (- 1.0) C))) (>= S_1 ?x6413) (<= (+ (* (- 3.0) C) (* (- 1.0) S_1) S_3) 0.0) (<= (+ L_0 (* (- 3.0) C) (* (- 1.0) A_0) S_3) 0.0) (<= (+ (* (- 4.0) C) (* (- 1.0) S_1) S_4) 0.0) (<= (+ (* (- 3.0) C) S_4 (* (- 1.0) S_2)) 0.0) (<= (+ L_0 (* (- 4.0) C) (* (- 1.0) A_0) S_4) 0.0) (<= (+ (* (- 3.0) C) S_2 (* (- 1.0) S_0)) 0.0) (or $x6080 $x6883) $x6890 (or (>= S_4 (+ A_3 ?x479)) $x6883) (<= (+ (* (- 5.0) C) S_4 (* (- 1.0) S_0)) 0.0) (<= (+ ?x325 S_3 (* (- 1.0) S_2)) 0.0) (<= (+ (* (- 4.0) C) S_3 (* (- 1.0) S_0)) 0.0) (or $x6080 $x6109) (or $x6080 $x6610) (or $x3650 $x4050 $x6610) (or $x6080 $x6907) (or $x3650 $x4050 $x6907) (or $x3650 $x4050 $x6109) $x758 $x37 (<= (+ L_0 (* (- 1.0) A_0) S_0) 0.0) (<= (+ C (* (- 1.0) S_2) S_0) 0.0) (<= (+ ?x325 (* (- 1.0) S_3) S_4) 0.0))))))))))))))))))))))))))))))))))
(check-sat)
